20
637662 1252158
193120 350292
776715 1479672
262749 521323
23227 50313
384111 715956
768320 1462192
168361 314251
650172 1319970
453970 978978
873944 1743412
389217 748759
579192 1274136
490419 1031710
485659 890331
478971 1029238
79818 174683
507772 1062778
134957 250178
234926 431650
4286641